output ([(((("\n"++problem_name)++"\n")++"L:")++show(L))++"\n"]++[if problem[i,j]==0 then "*" else show(letters[fix(L[problem[i,j]])]) endif++if j==cols then "\n" else "" endif | i in 1..rows, j in 1..cols, ])++["\n"];
int: rows = 13;
int: cols = 13;
array [1..rows,1..cols] of int: problem = [|1,2,3,4,0,5,6,7,0,8,9,10,11|12,13,14,15,0,16,17,18,0,19,20,21,22|23,24,25,26,0,27,28,29,0,30,31,32,33|34,35,36,37,38,39,0,40,41,42,43,44,45|0,0,0,46,47,48,0,49,50,51,0,0,0|52,53,54,55,56,0,0,0,57,58,59,60,61|62,63,64,0,0,0,0,0,0,0,65,66,67|68,69,70,71,72,0,0,0,73,74,75,76,77|0,0,0,78,79,80,0,81,82,83,0,0,0|84,85,86,87,88,89,0,90,91,92,93,94,95|96,97,98,99,0,100,101,102,0,103,104,105,106|107,108,109,110,0,111,112,113,0,114,115,116,117|118,119,120,121,0,122,123,124,0,125,126,127,128|];
int: num_letters = 26;
array [1..num_letters] of string: letters = ["a","b","c","d","e","f","g","h","i","j","k","l","m","n","o","p","q","r","s","t","u","v","w","x","y","z"];
int: N = 128;
array [0..N] of int: L;
string: problem_name = "puzzle21, 13 x 13";
